48 125 16 104 14 80 168 73 124 172 7 138 184 93 146 156 153 9 140 78 169 166 180 164 187 90 188 165 30 108 157 196 68 40 60 131 94 3 59 173 193 77 110 32 105 106 192 89 13 95 5 83 81 86 39 142 43 162 24 198 109 70 20 117 0 152 6 15 182 116 191 112 160 66 41 189 98 171 84 130 186 2 148 183 79 163 44 111 178 51 88 179 62 120 159 74 190 31 118 195 199 65 185 129 23 33 49 127 26 174 96 38 42 103 11 56 10 57 197 22 133 115 122 177 50 8 85 154 54 141 28 139 155 12 46 25 72 170 119 145 63 158 137 167 194 82 136 175 27 101 134 61 107 45 87 69 97 53 121 47 21 126 75 36 123 34 176 135 99 91 147 1 144 37 58 18 150 4 128 76 161 71 181 19 35 100 67 64 149 151 17 55 52 29 143 113 132 114 92 102